20
9	131	124	12	5
25	198	178	9	89
12	207	82	19	53
26	207	34	27	26
28	267	65	100	94
21	185	98	91	70
5	93	172	77	6
12	118	84	16	14
21	240	154	27	16
25	270	76	100	24
2	273	126	27	42
25	258	195	63	87
6	260	266	4	48
30	102	65	1	58
27	123	47	89	96
1	99	230	42	13
11	22	229	63	90
6	127	138	86	1
22	176	62	9	31
2	309	237	59	89
